webassembly/ejemplos_dzn/folder3_json_26.dzn
TERM = { '.', 's(0)', 'in_0'};
null = '.';
s = 3;
n = 7;
ndeps = 0;
max_registers_sz = 3;
NR = 0;
registers = [| |];
dependencies = [| |];
GET_ENUM = { GET1, GET2, GET3};
SET_ENUM = { SET1, SET2, SET3};
TEE_ENUM = { TEE1, TEE2, TEE3};
N = 1;
OP = { 'i32.load8_s_2' };
in_ops = [1 ];
out_ops = [1 ];
in1 = ['in_0' ];
in2 = ['.' ];
in3 = ['.' ];
out1 = ['s(0)' ];
out2 = ['.' ];
out3 = ['.' ];
comm = [false ];
gas = [1 ];
sz = [1 ];
stor = [false ];
lb = [ 1 ];
ub = [ 3 ];
startstack = [ 'in_0', null, null, null, null, null, null ];
endstack = [ 's(0)', null, null, null, null, null, null ];
