webassembly/ejemplos_results/3/folder3_json_26.txt
value = 1;
fgas = [1, 0, 0];
fsize = [1, 1, 1];
states = 
[|   in_0, '.', '.', '.', '.', '.', '.'
 | 's(0)', '.', '.', '.', '.', '.', '.'
 | 's(0)', '.', '.', '.', '.', '.', '.'
 | 's(0)', '.', '.', '.', '.', '.', '.'
 |];
register_states = 
[| '.', '.', '.'
 | '.', '.', '.'
 | '.', '.', '.'
 | '.', '.', '.'
 |];
program = [O('i32.load8_s_2'), NOP, NOP];
% time elapsed: 0.04 s
----------
==========
% time elapsed: 0.04 s
% [value > 0]
